ws_caric/src/star_planner/utils/lkh_tsp_solver/resource/nanyang_single.tsp
NAME : single
TYPE : ATSP
DIMENSION : 4
EDGE_WEIGHT_TYPE : EXPLICIT
EDGE_WEIGHT_FORMAT : FULL_MATRIX
EDGE_WEIGHT_SECTION
0 2941 2790 0 
10000000 0 232 2867 
10000000 232 0 2769 
0 10000000 10000000 0 
EOF