ws_caric/src/star_planner/utils/lkh_tsp_solver/resource/nanyang_single.txt
NAME : single.5889.tour
COMMENT : Length = 5889
COMMENT : Found by LKH [Keld Helsgaun] Tue Nov 21 16:29:00 2023
TYPE : TOUR
DIMENSION : 4
TOUR_SECTION
1
3
2
4
-1
EOF
